p cnf 473 1138
1 0
14 15 0
-14 -15 0
16 17 0
-16 -17 0
-13 14 0
-13 16 0
13 -14 -16 0
18 19 0
-18 -19 0
-12 13 0
-12 18 0
12 -13 -18 0
-21 13 0
21 -13 0
22 -19 0
-22 19 0
-20 21 0
-20 22 0
20 -21 -22 0
11 -12 0
11 -20 0
-11 12 20 0
25 15 0
-25 -15 0
26 -17 0
-26 17 0
-24 25 0
-24 26 0
24 -25 -26 0
27 19 0
-27 -19 0
-23 24 0
-23 27 0
23 -24 -27 0
10 -11 0
10 -23 0
-10 11 23 0
30 -15 0
-30 15 0
31 17 0
-31 -17 0
-29 30 0
-29 31 0
29 -30 -31 0
32 19 0
-32 -19 0
-28 29 0
-28 32 0
28 -29 -32 0
9 -10 0
9 -28 0
-9 10 28 0
-34 24 0
34 -24 0
35 -19 0
-35 19 0
-33 34 0
-33 35 0
33 -34 -35 0
-8 9 0
-8 33 0
8 -9 -33 0
43 44 0
-43 -44 0
45 46 0
-45 -46 0
-42 43 0
-42 45 0
42 -43 -45 0
47 48 0
-47 -48 0
-41 42 0
-41 47 0
41 -42 -47 0
-50 42 0
50 -42 0
51 -48 0
-51 48 0
-49 50 0
-49 51 0
49 -50 -51 0
40 -41 0
40 -49 0
-40 41 49 0
54 44 0
-54 -44 0
55 -46 0
-55 46 0
-53 54 0
-53 55 0
53 -54 -55 0
56 48 0
-56 -48 0
-52 53 0
-52 56 0
52 -53 -56 0
39 -40 0
39 -52 0
-39 40 52 0
59 -44 0
-59 44 0
60 46 0
-60 -46 0
-58 59 0
-58 60 0
58 -59 -60 0
61 48 0
-61 -48 0
-57 58 0
-57 61 0
57 -58 -61 0
38 -39 0
38 -57 0
-38 39 57 0
-63 53 0
63 -53 0
64 -48 0
-64 48 0
-62 63 0
-62 64 0
62 -63 -64 0
-37 38 0
-37 62 0
37 -38 -62 0
-65 33 0
65 -33 0
-36 37 0
-36 65 0
36 -37 -65 0
7 -8 0
7 -36 0
-7 8 36 0
73 74 0
-73 -74 0
75 76 0
-75 -76 0
-72 73 0
-72 75 0
72 -73 -75 0
77 78 0
-77 -78 0
-71 72 0
-71 77 0
71 -72 -77 0
-80 72 0
80 -72 0
81 -78 0
-81 78 0
-79 80 0
-79 81 0
79 -80 -81 0
70 -71 0
70 -79 0
-70 71 79 0
84 74 0
-84 -74 0
85 -76 0
-85 76 0
-83 84 0
-83 85 0
83 -84 -85 0
86 78 0
-86 -78 0
-82 83 0
-82 86 0
82 -83 -86 0
69 -70 0
69 -82 0
-69 70 82 0
89 -74 0
-89 74 0
90 76 0
-90 -76 0
-88 89 0
-88 90 0
88 -89 -90 0
91 78 0
-91 -78 0
-87 88 0
-87 91 0
87 -88 -91 0
68 -69 0
68 -87 0
-68 69 87 0
-93 83 0
93 -83 0
94 -78 0
-94 78 0
-92 93 0
-92 94 0
92 -93 -94 0
-67 68 0
-67 92 0
67 -68 -92 0
-96 33 0
96 -33 0
-97 62 0
97 -62 0
-95 96 0
-95 97 0
95 -96 -97 0
-66 67 0
-66 95 0
66 -67 -95 0
6 -7 0
6 -66 0
-6 7 66 0
105 106 0
-105 -106 0
107 108 0
-107 -108 0
-104 105 0
-104 107 0
104 -105 -107 0
109 110 0
-109 -110 0
-103 104 0
-103 109 0
103 -104 -109 0
-112 104 0
112 -104 0
113 -110 0
-113 110 0
-111 112 0
-111 113 0
111 -112 -113 0
102 -103 0
102 -111 0
-102 103 111 0
116 106 0
-116 -106 0
117 -108 0
-117 108 0
-115 116 0
-115 117 0
115 -116 -117 0
118 110 0
-118 -110 0
-114 115 0
-114 118 0
114 -115 -118 0
101 -102 0
101 -114 0
-101 102 114 0
121 -106 0
-121 106 0
122 108 0
-122 -108 0
-120 121 0
-120 122 0
120 -121 -122 0
123 110 0
-123 -110 0
-119 120 0
-119 123 0
119 -120 -123 0
100 -101 0
100 -119 0
-100 101 119 0
-125 115 0
125 -115 0
126 -110 0
-126 110 0
-124 125 0
-124 126 0
124 -125 -126 0
-99 100 0
-99 124 0
99 -100 -124 0
-128 95 0
128 -95 0
-129 92 0
129 -92 0
-127 128 0
-127 129 0
127 -128 -129 0
-98 99 0
-98 127 0
98 -99 -127 0
5 -6 0
5 -98 0
-5 6 98 0
137 138 0
-137 -138 0
139 140 0
-139 -140 0
-136 137 0
-136 139 0
136 -137 -139 0
141 142 0
-141 -142 0
-135 136 0
-135 141 0
135 -136 -141 0
-144 136 0
144 -136 0
145 -142 0
-145 142 0
-143 144 0
-143 145 0
143 -144 -145 0
134 -135 0
134 -143 0
-134 135 143 0
148 138 0
-148 -138 0
149 -140 0
-149 140 0
-147 148 0
-147 149 0
147 -148 -149 0
150 142 0
-150 -142 0
-146 147 0
-146 150 0
146 -147 -150 0
133 -134 0
133 -146 0
-133 134 146 0
153 -138 0
-153 138 0
154 140 0
-154 -140 0
-152 153 0
-152 154 0
152 -153 -154 0
155 142 0
-155 -142 0
-151 152 0
-151 155 0
151 -152 -155 0
132 -133 0
132 -151 0
-132 133 151 0
-157 147 0
157 -147 0
158 -142 0
-158 142 0
-156 157 0
-156 158 0
156 -157 -158 0
-131 132 0
-131 156 0
131 -132 -156 0
-160 127 0
160 -127 0
-161 124 0
161 -124 0
-159 160 0
-159 161 0
159 -160 -161 0
-130 131 0
-130 159 0
130 -131 -159 0
4 -5 0
4 -130 0
-4 5 130 0
169 170 0
-169 -170 0
171 172 0
-171 -172 0
-168 169 0
-168 171 0
168 -169 -171 0
173 174 0
-173 -174 0
-167 168 0
-167 173 0
167 -168 -173 0
-176 168 0
176 -168 0
177 -174 0
-177 174 0
-175 176 0
-175 177 0
175 -176 -177 0
166 -167 0
166 -175 0
-166 167 175 0
180 170 0
-180 -170 0
181 -172 0
-181 172 0
-179 180 0
-179 181 0
179 -180 -181 0
182 174 0
-182 -174 0
-178 179 0
-178 182 0
178 -179 -182 0
165 -166 0
165 -178 0
-165 166 178 0
185 -170 0
-185 170 0
186 172 0
-186 -172 0
-184 185 0
-184 186 0
184 -185 -186 0
187 174 0
-187 -174 0
-183 184 0
-183 187 0
183 -184 -187 0
164 -165 0
164 -183 0
-164 165 183 0
-189 179 0
189 -179 0
190 -174 0
-190 174 0
-188 189 0
-188 190 0
188 -189 -190 0
-163 164 0
-163 188 0
163 -164 -188 0
-192 159 0
192 -159 0
-193 156 0
193 -156 0
-191 192 0
-191 193 0
191 -192 -193 0
-162 163 0
-162 191 0
162 -163 -191 0
3 -4 0
3 -162 0
-3 4 162 0
-202 191 0
202 -191 0
-203 188 0
203 -188 0
-201 202 0
-201 203 0
201 -202 -203 0
-204 3 0
204 -3 0
200 -201 0
200 -204 0
-200 201 204 0
-211 183 0
211 -183 0
-212 20 0
212 -20 0
-210 211 0
-210 212 0
210 -211 -212 0
-214 188 0
214 -188 0
-215 28 0
215 -28 0
-213 214 0
-213 215 0
213 -214 -215 0
209 -210 0
209 -213 0
-209 210 213 0
-217 178 0
217 -178 0
-218 33 0
218 -33 0
-216 217 0
-216 218 0
216 -217 -218 0
208 -209 0
208 -216 0
-208 209 216 0
-220 175 0
220 -175 0
-221 23 0
221 -23 0
-219 220 0
-219 221 0
219 -220 -221 0
207 -208 0
207 -219 0
-207 208 219 0
-223 178 0
223 -178 0
-224 28 0
224 -28 0
-222 223 0
-222 224 0
222 -223 -224 0
206 -207 0
206 -222 0
-206 207 222 0
-226 167 0
226 -167 0
-227 20 0
227 -20 0
-225 226 0
-225 227 0
225 -226 -227 0
205 -206 0
205 -225 0
-205 206 225 0
-199 200 0
-199 205 0
199 -200 -205 0
-229 200 0
229 -200 0
-236 183 0
236 -183 0
-237 49 0
237 -49 0
-235 236 0
-235 237 0
235 -236 -237 0
-239 188 0
239 -188 0
-240 57 0
240 -57 0
-238 239 0
-238 240 0
238 -239 -240 0
234 -235 0
234 -238 0
-234 235 238 0
-242 178 0
242 -178 0
-243 62 0
243 -62 0
-241 242 0
-241 243 0
241 -242 -243 0
233 -234 0
233 -241 0
-233 234 241 0
-245 175 0
245 -175 0
-246 52 0
246 -52 0
-244 245 0
-244 246 0
244 -245 -246 0
232 -233 0
232 -244 0
-232 233 244 0
-248 178 0
248 -178 0
-249 57 0
249 -57 0
-247 248 0
-247 249 0
247 -248 -249 0
231 -232 0
231 -247 0
-231 232 247 0
-251 167 0
251 -167 0
-252 49 0
252 -49 0
-250 251 0
-250 252 0
250 -251 -252 0
230 -231 0
230 -250 0
-230 231 250 0
-228 229 0
-228 230 0
228 -229 -230 0
198 -199 0
198 -228 0
-198 199 228 0
-254 200 0
254 -200 0
-261 183 0
261 -183 0
-262 79 0
262 -79 0
-260 261 0
-260 262 0
260 -261 -262 0
-264 188 0
264 -188 0
-265 87 0
265 -87 0
-263 264 0
-263 265 0
263 -264 -265 0
259 -260 0
259 -263 0
-259 260 263 0
-267 178 0
267 -178 0
-268 92 0
268 -92 0
-266 267 0
-266 268 0
266 -267 -268 0
258 -259 0
258 -266 0
-258 259 266 0
-270 175 0
270 -175 0
-271 82 0
271 -82 0
-269 270 0
-269 271 0
269 -270 -271 0
257 -258 0
257 -269 0
-257 258 269 0
-273 178 0
273 -178 0
-274 87 0
274 -87 0
-272 273 0
-272 274 0
272 -273 -274 0
256 -257 0
256 -272 0
-256 257 272 0
-276 167 0
276 -167 0
-277 79 0
277 -79 0
-275 276 0
-275 277 0
275 -276 -277 0
255 -256 0
255 -275 0
-255 256 275 0
-253 254 0
-253 255 0
253 -254 -255 0
197 -198 0
197 -253 0
-197 198 253 0
-279 200 0
279 -200 0
-286 183 0
286 -183 0
-287 111 0
287 -111 0
-285 286 0
-285 287 0
285 -286 -287 0
-289 188 0
289 -188 0
-290 119 0
290 -119 0
-288 289 0
-288 290 0
288 -289 -290 0
284 -285 0
284 -288 0
-284 285 288 0
-292 178 0
292 -178 0
-293 124 0
293 -124 0
-291 292 0
-291 293 0
291 -292 -293 0
283 -284 0
283 -291 0
-283 284 291 0
-295 175 0
295 -175 0
-296 114 0
296 -114 0
-294 295 0
-294 296 0
294 -295 -296 0
282 -283 0
282 -294 0
-282 283 294 0
-298 178 0
298 -178 0
-299 119 0
299 -119 0
-297 298 0
-297 299 0
297 -298 -299 0
281 -282 0
281 -297 0
-281 282 297 0
-301 167 0
301 -167 0
-302 111 0
302 -111 0
-300 301 0
-300 302 0
300 -301 -302 0
280 -281 0
280 -300 0
-280 281 300 0
-278 279 0
-278 280 0
278 -279 -280 0
196 -197 0
196 -278 0
-196 197 278 0
-304 200 0
304 -200 0
-311 183 0
311 -183 0
-312 143 0
312 -143 0
-310 311 0
-310 312 0
310 -311 -312 0
-314 188 0
314 -188 0
-315 151 0
315 -151 0
-313 314 0
-313 315 0
313 -314 -315 0
309 -310 0
309 -313 0
-309 310 313 0
-317 178 0
317 -178 0
-318 156 0
318 -156 0
-316 317 0
-316 318 0
316 -317 -318 0
308 -309 0
308 -316 0
-308 309 316 0
-320 175 0
320 -175 0
-321 146 0
321 -146 0
-319 320 0
-319 321 0
319 -320 -321 0
307 -308 0
307 -319 0
-307 308 319 0
-323 178 0
323 -178 0
-324 151 0
324 -151 0
-322 323 0
-322 324 0
322 -323 -324 0
306 -307 0
306 -322 0
-306 307 322 0
-326 167 0
326 -167 0
-327 143 0
327 -143 0
-325 326 0
-325 327 0
325 -326 -327 0
305 -306 0
305 -325 0
-305 306 325 0
-303 304 0
-303 305 0
303 -304 -305 0
195 -196 0
195 -303 0
-195 196 303 0
-329 200 0
329 -200 0
-336 183 0
336 -183 0
-337 175 0
337 -175 0
-335 336 0
-335 337 0
335 -336 -337 0
-339 188 0
339 -188 0
-340 183 0
340 -183 0
-338 339 0
-338 340 0
338 -339 -340 0
334 -335 0
334 -338 0
-334 335 338 0
-342 178 0
342 -178 0
-343 188 0
343 -188 0
-341 342 0
-341 343 0
341 -342 -343 0
333 -334 0
333 -341 0
-333 334 341 0
-345 175 0
345 -175 0
-346 178 0
346 -178 0
-344 345 0
-344 346 0
344 -345 -346 0
332 -333 0
332 -344 0
-332 333 344 0
-348 178 0
348 -178 0
-349 183 0
349 -183 0
-347 348 0
-347 349 0
347 -348 -349 0
331 -332 0
331 -347 0
-331 332 347 0
-351 167 0
351 -167 0
-352 175 0
352 -175 0
-350 351 0
-350 352 0
350 -351 -352 0
330 -331 0
330 -350 0
-330 331 350 0
-328 329 0
-328 330 0
328 -329 -330 0
194 -195 0
194 -328 0
-194 195 328 0
2 -3 0
2 -194 0
-2 3 194 0
-364 28 0
364 -28 0
-365 49 0
365 -49 0
-363 364 0
-363 365 0
363 -364 -365 0
-367 33 0
367 -33 0
-368 57 0
368 -57 0
-366 367 0
-366 368 0
366 -367 -368 0
362 -363 0
362 -366 0
-362 363 366 0
-370 23 0
370 -23 0
-371 62 0
371 -62 0
-369 370 0
-369 371 0
369 -370 -371 0
361 -362 0
361 -369 0
-361 362 369 0
-373 20 0
373 -20 0
-374 52 0
374 -52 0
-372 373 0
-372 374 0
372 -373 -374 0
360 -361 0
360 -372 0
-360 361 372 0
-376 23 0
376 -23 0
-377 57 0
377 -57 0
-375 376 0
-375 377 0
375 -376 -377 0
359 -360 0
359 -375 0
-359 360 375 0
-379 12 0
379 -12 0
-380 49 0
380 -49 0
-378 379 0
-378 380 0
378 -379 -380 0
358 -359 0
358 -378 0
-358 359 378 0
-387 57 0
387 -57 0
-388 79 0
388 -79 0
-386 387 0
-386 388 0
386 -387 -388 0
-390 62 0
390 -62 0
-391 87 0
391 -87 0
-389 390 0
-389 391 0
389 -390 -391 0
385 -386 0
385 -389 0
-385 386 389 0
-393 52 0
393 -52 0
-394 92 0
394 -92 0
-392 393 0
-392 394 0
392 -393 -394 0
384 -385 0
384 -392 0
-384 385 392 0
-396 49 0
396 -49 0
-397 82 0
397 -82 0
-395 396 0
-395 397 0
395 -396 -397 0
383 -384 0
383 -395 0
-383 384 395 0
-399 52 0
399 -52 0
-400 87 0
400 -87 0
-398 399 0
-398 400 0
398 -399 -400 0
382 -383 0
382 -398 0
-382 383 398 0
-402 41 0
402 -41 0
-403 79 0
403 -79 0
-401 402 0
-401 403 0
401 -402 -403 0
381 -382 0
381 -401 0
-381 382 401 0
-357 358 0
-357 381 0
357 -358 -381 0
-410 87 0
410 -87 0
-411 111 0
411 -111 0
-409 410 0
-409 411 0
409 -410 -411 0
-413 92 0
413 -92 0
-414 119 0
414 -119 0
-412 413 0
-412 414 0
412 -413 -414 0
408 -409 0
408 -412 0
-408 409 412 0
-416 82 0
416 -82 0
-417 124 0
417 -124 0
-415 416 0
-415 417 0
415 -416 -417 0
407 -408 0
407 -415 0
-407 408 415 0
-419 79 0
419 -79 0
-420 114 0
420 -114 0
-418 419 0
-418 420 0
418 -419 -420 0
406 -407 0
406 -418 0
-406 407 418 0
-422 82 0
422 -82 0
-423 119 0
423 -119 0
-421 422 0
-421 423 0
421 -422 -423 0
405 -406 0
405 -421 0
-405 406 421 0
-425 71 0
425 -71 0
-426 111 0
426 -111 0
-424 425 0
-424 426 0
424 -425 -426 0
404 -405 0
404 -424 0
-404 405 424 0
-356 357 0
-356 404 0
356 -357 -404 0
-433 119 0
433 -119 0
-434 143 0
434 -143 0
-432 433 0
-432 434 0
432 -433 -434 0
-436 124 0
436 -124 0
-437 151 0
437 -151 0
-435 436 0
-435 437 0
435 -436 -437 0
431 -432 0
431 -435 0
-431 432 435 0
-439 114 0
439 -114 0
-440 156 0
440 -156 0
-438 439 0
-438 440 0
438 -439 -440 0
430 -431 0
430 -438 0
-430 431 438 0
-442 111 0
442 -111 0
-443 146 0
443 -146 0
-441 442 0
-441 443 0
441 -442 -443 0
429 -430 0
429 -441 0
-429 430 441 0
-445 114 0
445 -114 0
-446 151 0
446 -151 0
-444 445 0
-444 446 0
444 -445 -446 0
428 -429 0
428 -444 0
-428 429 444 0
-448 103 0
448 -103 0
-449 143 0
449 -143 0
-447 448 0
-447 449 0
447 -448 -449 0
427 -428 0
427 -447 0
-427 428 447 0
-355 356 0
-355 427 0
355 -356 -427 0
-456 151 0
456 -151 0
-457 175 0
457 -175 0
-455 456 0
-455 457 0
455 -456 -457 0
-459 156 0
459 -156 0
-460 183 0
460 -183 0
-458 459 0
-458 460 0
458 -459 -460 0
454 -455 0
454 -458 0
-454 455 458 0
-462 146 0
462 -146 0
-463 188 0
463 -188 0
-461 462 0
-461 463 0
461 -462 -463 0
453 -454 0
453 -461 0
-453 454 461 0
-465 143 0
465 -143 0
-466 178 0
466 -178 0
-464 465 0
-464 466 0
464 -465 -466 0
452 -453 0
452 -464 0
-452 453 464 0
-468 146 0
468 -146 0
-469 183 0
469 -183 0
-467 468 0
-467 469 0
467 -468 -469 0
451 -452 0
451 -467 0
-451 452 467 0
-471 135 0
471 -135 0
-472 175 0
472 -175 0
-470 471 0
-470 472 0
470 -471 -472 0
450 -451 0
450 -470 0
-450 451 470 0
-354 355 0
-354 450 0
354 -355 -450 0
-473 12 0
473 -12 0
-353 354 0
-353 473 0
353 -354 -473 0
-1 2 0
-1 353 0
1 -2 -353 0
